8128
8242
8242
8242
8242
8242
8242
8242
8242
8242
8242
8242
8242
8242
8242
8242
8242
8242
8242
8242
8242
8242
8242
8242
8242
8242
8242
8242
8242
8242
8242
8242
8242
8242
8242
8242
8242
8242
8242
8242
8242
8242
8242
8242
8242
8242
8242
8242
8242
8242
8242
8242
8242
8242
8242
8242
8242
8242
8242
8242
8242
8242
8242
8242
8242
8242
8242
8242
8242
8242
8242
8242
8242
8242
8242
8242
8242
8242
8242
8242
8242
8242
8242
8242
8242
8242
8242
8242
8242
8242
8242
8242
8242
8242
8242
8242
8242
8242
8242
